Gurobi Optimizer version 10.0.3 build v10.0.3rc0 (win64)

CPU model: 13th Gen Intel(R) Core(TM) i7-13700T, instruction set [SSE2|AVX|AVX2]
Thread count: 16 physical cores, 24 logical processors, using up to 24 threads

Optimize a model with 6764145 rows, 340529 columns and 13733705 nonzeros
Model fingerprint: 0x7f84464f
Variable types: 0 continuous, 340529 integer (73800 binary)
Coefficient statistics:
  Matrix range     [1e+00, 6e+02]
  Objective range  [6e+00, 3e+02]
  Bounds range     [1e+00, 1e+00]
  RHS range        [1e+00, 6e+02]
Presolve removed 161139 rows and 189327 columns (presolve time = 5s) ...
Presolve removed 161139 rows and 189327 columns (presolve time = 10s) ...
Presolve removed 161139 rows and 189327 columns (presolve time = 15s) ...
Presolve removed 161139 rows and 189327 columns (presolve time = 20s) ...
Presolve removed 161139 rows and 189327 columns (presolve time = 25s) ...
Presolve removed 161139 rows and 189327 columns (presolve time = 30s) ...
Presolve removed 161139 rows and 209108 columns (presolve time = 35s) ...
Presolve removed 1032370 rows and 209376 columns (presolve time = 40s) ...
Presolve removed 1032459 rows and 209376 columns (presolve time = 45s) ...
Presolve removed 1032459 rows and 209376 columns (presolve time = 50s) ...
Presolve removed 1032459 rows and 209376 columns (presolve time = 55s) ...
Presolve removed 1032459 rows and 209376 columns (presolve time = 60s) ...
Presolve removed 1896236 rows and 229470 columns (presolve time = 65s) ...
Presolve removed 1896417 rows and 229470 columns (presolve time = 70s) ...
Presolve removed 1896417 rows and 229470 columns (presolve time = 75s) ...
Presolve removed 1896417 rows and 229470 columns (presolve time = 80s) ...
Presolve removed 2353295 rows and 229489 columns (presolve time = 85s) ...
Presolve removed 2377948 rows and 248567 columns (presolve time = 90s) ...
Presolve removed 2378295 rows and 248567 columns (presolve time = 95s) ...
Presolve removed 2378302 rows and 248567 columns (presolve time = 100s) ...
Presolve removed 2531297 rows and 248567 columns (presolve time = 105s) ...
Presolve removed 2596682 rows and 248567 columns (presolve time = 111s) ...
Presolve removed 2663614 rows and 248567 columns (presolve time = 116s) ...
Presolve removed 2692874 rows and 248567 columns (presolve time = 121s) ...
Presolve removed 2719533 rows and 248567 columns (presolve time = 125s) ...
Presolve removed 2752669 rows and 248567 columns (presolve time = 130s) ...
Presolve removed 2790465 rows and 248567 columns (presolve time = 136s) ...
Presolve removed 3231369 rows and 249501 columns (presolve time = 140s) ...
Presolve removed 3256984 rows and 268516 columns (presolve time = 145s) ...
Presolve removed 3257718 rows and 268516 columns (presolve time = 150s) ...
Presolve removed 3258917 rows and 268516 columns (presolve time = 155s) ...
Presolve removed 3418076 rows and 268516 columns (presolve time = 160s) ...
Presolve removed 3442960 rows and 268516 columns (presolve time = 165s) ...
Presolve removed 3468773 rows and 268516 columns (presolve time = 170s) ...
Presolve removed 3496186 rows and 268516 columns (presolve time = 176s) ...
Presolve removed 3523184 rows and 268516 columns (presolve time = 181s) ...
Presolve removed 3545709 rows and 268516 columns (presolve time = 185s) ...
Presolve removed 3572852 rows and 268516 columns (presolve time = 190s) ...
Presolve removed 3603256 rows and 268516 columns (presolve time = 196s) ...
Presolve removed 3625502 rows and 268516 columns (presolve time = 200s) ...
Presolve removed 3664740 rows and 268516 columns (presolve time = 208s) ...
Presolve removed 4106465 rows and 269447 columns (presolve time = 210s) ...
Presolve removed 4132843 rows and 288331 columns (presolve time = 215s) ...
Presolve removed 4135665 rows and 288331 columns (presolve time = 220s) ...
Presolve removed 4399826 rows and 288331 columns (presolve time = 225s) ...
Presolve removed 4983742 rows and 289276 columns (presolve time = 230s) ...
Presolve removed 5010736 rows and 308064 columns (presolve time = 235s) ...
Presolve removed 5016403 rows and 308064 columns (presolve time = 240s) ...
Presolve removed 5197137 rows and 308064 columns (presolve time = 245s) ...
Presolve removed 5240353 rows and 308064 columns (presolve time = 250s) ...
Presolve removed 5283634 rows and 308064 columns (presolve time = 255s) ...
Presolve removed 5328969 rows and 308064 columns (presolve time = 260s) ...
Presolve removed 5374492 rows and 308064 columns (presolve time = 266s) ...
Presolve removed 5420929 rows and 308064 columns (presolve time = 271s) ...
Presolve removed 5886004 rows and 327631 columns (presolve time = 275s) ...
Presolve removed 6045982 rows and 327631 columns (presolve time = 281s) ...
Presolve removed 6070518 rows and 327631 columns (presolve time = 285s) ...
Presolve removed 6103130 rows and 327631 columns (presolve time = 290s) ...
Presolve removed 6141466 rows and 327631 columns (presolve time = 296s) ...
Presolve removed 6170031 rows and 327631 columns (presolve time = 301s) ...
Presolve removed 6205229 rows and 327631 columns (presolve time = 306s) ...
Presolve removed 6242830 rows and 327631 columns (presolve time = 311s) ...
Presolve removed 6289462 rows and 327631 columns (presolve time = 317s) ...
Presolve removed 6539269 rows and 337590 columns (presolve time = 320s) ...
Presolve removed 6647098 rows and 337590 columns (presolve time = 325s) ...
Presolve removed 6700182 rows and 337590 columns (presolve time = 330s) ...
Presolve removed 6761912 rows and 339403 columns
Presolve time: 334.94s
Presolved: 2233 rows, 1126 columns, 5151 nonzeros
Variable types: 0 continuous, 1126 integer (374 binary)
Found heuristic solution: objective 44366.130000
Found heuristic solution: objective 48622.780000

Root simplex log...

Iteration    Objective       Primal Inf.    Dual Inf.      Time
       0    9.3340370e+04   8.768750e+02   0.000000e+00    336s
    1001    8.9234170e+04   0.000000e+00   0.000000e+00    336s

Root relaxation: objective 8.923417e+04, 1001 iterations, 0.00 seconds (0.00 work units)

    Nodes    |    Current Node    |     Objective Bounds      |     Work
 Expl Unexpl |  Obj  Depth IntInf | Incumbent    BestBd   Gap | It/Node Time

     0     0 89234.1700    0   70 48622.7800 89234.1700  83.5%     -  336s
H    0     0                    86468.270000 89234.1700  3.20%     -  336s
H    0     0                    87339.670000 89234.1700  2.17%     -  336s
H    0     0                    87877.670000 89234.1700  1.54%     -  336s
H    0     0                    88581.270000 89234.1700  0.74%     -  336s
     0     0 88916.2200    0    4 88581.2700 88916.2200  0.38%     -  336s
H    0     0                    88598.270000 88916.2200  0.36%     -  336s
H    0     0                    88830.170000 88916.2200  0.10%     -  336s
     0     0 88845.9800    0    6 88830.1700 88845.9800  0.02%     -  336s
H    0     0                    88837.170000 88845.9800  0.01%     -  336s

Explored 1 nodes (1373 simplex iterations) in 336.35 seconds (128.58 work units)
Thread count was 24 (of 24 available processors)

Solution count 9: 88837.2 88830.2 88598.3 ... 44366.1

Optimal solution found (tolerance 1.00e-04)
Best objective 8.883717000000e+04, best bound 8.884597000000e+04, gap 0.0099%
Valor da função objetivo:  88837.17

Tempo para criar o modelo:  52.26877427101135
